Read MPS format model from file dat/rmp/DER_24_8192_20.mps
Reading time = 0.25 seconds
: 8216 rows, 28744 columns, 647297 nonzeros
Gurobi Optimizer version 9.0.0 build v9.0.0rc2 (linux64)
Optimize a model with 8216 rows, 28744 columns and 647297 nonzeros
Model fingerprint: 0xd519aae5
Coefficient statistics:
  Matrix range     [3e-04, 1e+01]
  Objective range  [2e-01, 1e+03]
  Bounds range     [5e+04, 5e+04]
  RHS range        [1e+00, 1e+00]
Ordering time: 0.01s

Barrier statistics:
 AA' NZ     : 1.860e+05
 Factor NZ  : 2.616e+05 (roughly 17 MBytes of memory)
 Factor Ops : 9.086e+06 (less than 1 second per iteration)
 Threads    : 1

                  Objective                Residual
Iter       Primal          Dual         Primal    Dual     Compl     Time
   0   6.64601266e+08 -4.63357573e+07  1.44e+07 1.22e-02  4.89e+05     0s
   1   1.50053361e+07 -1.00555521e+07  3.05e+05 3.64e-12  1.07e+04     0s
   2   8.06341251e+05 -5.93979696e+06  1.62e+04 3.64e-12  7.49e+02     0s
   3   1.32507539e+04 -2.43853414e+06  1.14e-10 1.82e-12  8.52e+01     0s
   4   1.20608111e+04  7.19769640e+00  8.37e-11 3.64e-12  4.19e-01     0s
   5   1.19672696e+04  8.23305503e+03  5.66e-11 1.82e-12  1.30e-01     0s
   6   1.18339178e+04  1.12222783e+04  6.55e-11 1.82e-12  2.13e-02     0s
   7   1.17661854e+04  1.15459345e+04  1.47e-10 1.82e-12  7.66e-03     0s
   8   1.16834419e+04  1.16333607e+04  1.45e-10 3.64e-12  1.74e-03     1s
   9   1.16647370e+04  1.16429011e+04  2.11e-10 1.82e-12  7.59e-04     1s
  10   1.16561526e+04  1.16478885e+04  2.42e-10 1.82e-12  2.87e-04     1s
  11   1.16533500e+04  1.16496424e+04  1.33e-09 1.82e-12  1.29e-04     1s
  12   1.16531246e+04  1.16502680e+04  1.24e-09 3.64e-12  9.93e-05     1s
  13   1.16518214e+04  1.16503901e+04  2.94e-09 3.64e-12  4.98e-05     1s
  14   1.16516237e+04  1.16506832e+04  2.56e-09 1.82e-12  3.27e-05     1s
  15   1.16515165e+04  1.16508323e+04  1.66e-09 1.82e-12  2.38e-05     1s
  16   1.16513477e+04  1.16509420e+04  1.11e-09 1.82e-12  1.41e-05     1s
  17   1.16512862e+04  1.16510074e+04  1.27e-09 3.64e-12  9.69e-06     1s
  18   1.16512274e+04  1.16510289e+04  1.01e-09 1.82e-12  6.90e-06     1s
  19   1.16511791e+04  1.16510508e+04  2.40e-09 1.82e-12  4.46e-06     1s
  20   1.16511577e+04  1.16510605e+04  3.00e-09 1.82e-12  3.38e-06     1s
  21   1.16511287e+04  1.16510674e+04  3.05e-09 1.82e-12  2.13e-06     1s
  22   1.16510924e+04  1.16510761e+04  3.35e-09 5.46e-12  5.70e-07     1s
  23   1.16510889e+04  1.16510790e+04  4.73e-09 3.64e-12  3.41e-07     1s
  24   1.16510864e+04  1.16510803e+04  7.21e-09 3.64e-12  2.13e-07     1s
  25   1.16510836e+04  1.16510807e+04  8.22e-08 1.82e-12  1.02e-07     1s
  26   1.16510808e+04  1.16510807e+04  1.40e-07 3.64e-12  3.80e-09     1s

Barrier solved model in 26 iterations and 1.07 seconds
Optimal objective 1.16510808e+04

Solve time: 1.076181929
Barrier iterations: 26
